Route #1: 60 55 47 43 38 35 48 49 37 32 34 41 40 42 29 31 33 59 69
Route #2: 52 56 58 57 39 44 36 46 50 54
Route #3: 65 66 51 67 61 30 45 68 64 63 53
Route #4: 18 122 91 93 130 27
Route #5: 149 78 79 80 77 81 62 150
Route #6: 141 116 112 109 115 118 111 119 113 110 117 114
Route #7: 19 101 108 104 107 103 97 92 105 98 134 132 138 123
Route #8: 12 24 100 139 127
Route #9: 20 124 21 74 75 76 25
Route #10: 28 22 136 133 121 137 96 99 89 95 102 90 94 106 135
Route #11: 14 8 1 7 9 10 11 2 3 6 4 5 144
Route #12: 13 120 16 131 128 129 126 125 17 142
Route #13: 26 147 84 83 88 85 87 82 86 148
Route #14: 145 140 146 71 73 72 70 143 15 23
Cost 2889.822488719804